20
step 1/50 Rg=1.904
P 2.7796 -1.3230 0.5402
S -1.0980 -0.1795 0.7271
C 0.4777 -0.8178 -0.8276
O 1.1384 -0.5835 -0.0376
O 0.3754 -0.5091 1.8605
F 1.1027 -1.7544 -0.1243
Cl -0.3387 0.8782 -0.6831
O 0.1759 0.7498 0.4098
N -1.0414 -0.3404 -0.9712
C -0.2473 1.6414 0.0563
N -1.0666 1.2412 2.0293
Cl 1.3834 -1.4207 -0.6622
O 1.7366 -0.6412 0.1796
F 1.2434 -0.8089 -0.2945
N -3.2003 -0.9247 -0.7259
S -1.0688 1.9690 -1.6202
S -0.0230 0.2167 0.7941
P -1.4275 1.4883 -0.1160
N -0.6289 0.7725 -0.0388
P -0.2725 0.3461 -0.4955
20
step 2/50 Rg=1.854
P 1.3226 -1.5444 0.3609
Cl -0.7476 -0.6608 0.5697
O 0.2500 0.7837 -2.9344
O 1.8422 0.8304 -1.8713
F 0.1276 -0.4290 0.2611
O -0.0007 -1.6481 1.0484
N 0.8873 1.7007 0.1863
Cl -0.4764 -0.1760 0.4648
N -1.6117 0.5673 -0.5622
C -0.2701 1.9201 0.6889
C -0.6536 1.5975 0.1360
Cl 1.3333 -0.4578 -0.6568
O 1.3923 -1.5617 1.0285
O 0.3488 -1.0016 0.8426
Cl -1.7994 -1.7793 -1.2888
S 0.0328 -0.4541 0.3048
S -1.8133 1.6284 0.8839
P 0.0562 -0.2958 0.1814
P -0.1639 1.5018 0.1067
F -0.0565 -0.5215 0.2495
20
step 3/50 Rg=1.875
P 0.9874 -2.9387 1.6006
O -1.1315 0.2244 -0.4048
Cl 0.1591 -0.2558 -2.4809
N 2.1148 0.2749 -1.0180
F -0.3289 0.3045 0.1872
O -0.2745 0.4045 0.7106
N 0.2252 2.0946 0.7196
F -0.1883 0.3405 -0.0846
N -0.1393 -0.4867 -0.2699
F -0.9004 0.8552 0.1073
C -0.5520 1.3947 1.1314
Cl 0.9460 -0.2117 0.3105
C 1.4016 -2.0498 1.1583
O 0.4600 -0.8066 1.6142
P -1.9408 -0.8968 -1.0282
F -0.2863 -0.7471 -0.3338
S -0.1157 0.4463 -0.0530
C -2.6134 -0.4314 -0.9980
P 0.7511 1.8105 -0.4461
O 1.4259 0.6744 -0.4224
20
step 4/50 Rg=1.739
N 0.9900 -0.8972 1.9828
P -0.8842 -0.2963 -0.4591
Cl -0.4888 0.1037 -1.3526
N 2.7256 0.3890 -1.1052
N -0.2325 -0.1098 0.0384
F 0.1124 0.6355 0.3328
N 1.5656 1.5076 0.6760
F -0.3463 -0.7670 0.1352
P 0.4097 -0.5044 -0.1716
P -0.6670 -0.3878 -0.2685
C 0.1175 0.3343 1.0615
Cl -0.0425 -0.1841 0.0100
Cl 0.1545 -0.6938 0.3337
O 0.0929 -0.4702 2.1724
P -1.7205 -0.4484 -0.5138
F 0.1865 -0.4354 -0.5333
Cl -0.8676 0.5251 -0.9876
F -3.0753 0.0535 -0.4074
S -1.1042 0.8941 -0.0893
F 3.0743 0.7516 -0.8545
20
step 5/50 Rg=1.864
N 0.0811 -1.7089 1.2679
O -0.5325 0.3685 0.3689
Cl 0.2197 0.3063 -1.7264
P 2.8762 0.7926 -0.3979
N 0.8146 -0.2770 0.1505
N 1.0194 0.7866 -0.2441
N 1.1488 0.8074 -0.0948
F -0.4630 -1.1219 0.2568
N -0.6729 -0.4540 -0.1475
P -0.9446 0.1560 0.7603
C -0.7823 -0.3368 0.5357
Cl -0.6985 0.6519 0.0213
N 0.0709 -1.9786 0.7444
N -0.6961 -0.4695 2.0508
Cl -0.7017 -1.2083 -1.8804
F 0.6945 0.4243 0.0483
S -0.4723 -0.0824 -0.3034
O -3.2637 0.4243 0.2864
S 0.0377 2.4214 0.3002
C 2.2646 0.4981 -1.9969
20
step 6/50 Rg=1.712
N 0.7110 -0.9985 1.1720
O -0.6695 -0.3287 0.2442
F 0.3339 0.5213 -1.0542
F 2.0368 1.2170 -1.2043
N 0.4804 0.0425 -0.1211
N 0.7034 1.0114 0.0444
N 0.7465 -0.1849 1.0745
F 0.0664 -1.5993 0.3766
S -1.1877 0.0458 -0.1569
C -1.1004 0.0151 -0.1350
C -1.3378 -0.3883 0.1622
Cl -1.1493 0.8801 0.5302
N -0.3206 -1.6261 0.5759
Cl -0.5152 -0.0955 1.9728
Cl -0.7051 -1.4954 -1.4879
F 0.9455 0.2917 -0.1833
N -0.2170 0.1143 0.1978
F -1.4373 -0.0529 -0.2827
S -0.0484 2.8504 -0.1108
O 2.6643 -0.2201 -1.6145
20
step 7/50 Rg=1.995
N 0.6615 -0.7055 0.5551
C -0.0308 -0.3376 0.0677
Cl 0.0819 0.1890 -0.8460
Cl 2.7791 0.9204 -0.8746
N -0.7408 -0.0982 -0.0819
N 0.1327 0.2455 -0.6413
N 1.0377 -0.2651 -0.3562
F -0.8796 -2.1517 0.6503
S -2.2067 -0.1504 -0.4391
C -0.0615 -0.2220 0.2737
F -1.1174 -1.5813 0.6192
C -0.7337 1.3519 2.7569
P -1.6847 -0.2925 0.2411
F -0.1550 -0.0876 1.6315
Cl -0.7518 -1.2478 -2.0931
F 1.3126 0.1190 -0.6650
Cl -0.3069 0.9170 -0.0861
F -0.9682 -0.2594 0.1121
O 0.5469 3.7416 -0.1109
F 3.0847 -0.0853 -0.7136
20
step 8/50 Rg=1.993
S 0.3376 -0.7828 0.5306
S -0.6893 0.3689 0.4226
P 0.1428 0.4694 -0.0470
C 2.5478 0.1607 -0.7345
Cl 0.4663 -0.9124 -0.4810
N 0.0818 0.4209 -1.1501
N 1.3627 0.8887 -0.5748
C -1.2368 -2.8639 0.7001
S -1.4603 0.0620 -0.3859
C -0.5260 -0.7542 0.4423
F -0.6495 -2.3051 1.2222
C -0.4914 2.0141 1.7884
P -2.4142 -0.3237 0.6778
F 0.7330 0.3290 1.3301
Cl -1.3127 -0.5882 -2.0228
F 2.2346 0.0598 0.0513
Cl 0.2231 0.3656 -0.2256
F -0.9699 -0.2388 -0.0911
O 0.1022 3.3507 -0.2537
F 1.5182 0.2792 -1.1987
20
step 9/50 Rg=2.048
S 0.3722 -0.5183 0.5399
S -0.2973 0.2261 0.6161
P -0.7186 0.6378 0.9095
P 1.9407 0.0124 -0.4573
Cl 1.1924 -0.9019 -0.6514
P -0.7173 0.6830 -0.0675
N 1.7153 1.3540 -0.1257
F -0.8864 -2.9054 0.9255
S -1.0979 0.1373 -0.6641
F 0.4518 -0.3576 0.4401
F -0.0386 -2.2637 0.9311
C -0.5631 1.1404 1.9586
C -2.7802 -0.9002 -0.4147
C 0.8032 0.3540 1.1016
Cl -1.9780 -1.3437 -2.2529
Cl 1.9817 0.2981 -0.2794
Cl 0.3842 1.4225 -0.3676
P -1.7196 0.1415 -0.4474
O 0.3103 2.9525 -0.2442
C 1.6456 -0.1688 -1.4501
20
step 10/50 Rg=2.041
S 0.1596 -0.3099 0.1170
C -0.3823 0.1494 0.7892
P 0.7904 0.1739 0.7565
C 1.9603 0.2967 -0.3447
Cl 1.8973 -1.7815 -1.6329
P -0.6238 1.1884 -0.7049
N 0.4229 1.6003 -0.0535
F -1.3435 -3.0745 0.4784
S -0.9718 -0.0294 -0.5722
F -0.8057 -0.5739 -0.3279
F 0.0862 -2.2305 1.2146
C -1.3465 1.2988 2.1574
Cl -1.9863 -1.1840 -0.1702
C 0.2015 -0.6165 1.4308
Cl -1.1181 -0.3645 -1.9374
F 2.2255 1.2249 -0.0398
Cl 0.4659 1.0210 -0.2288
P -1.0609 -0.0364 -0.0945
O -0.2315 2.6334 0.5254
C 1.6607 0.6142 -1.3627
20
step 11/50 Rg=2.268
S 0.4246 0.2178 -0.0779
S 0.0845 0.3276 1.2765
Cl 0.5926 -0.0235 1.2966
P 2.2639 -0.2158 -0.5914
P 2.0980 -1.2869 -1.9133
C -1.7222 1.4305 -1.1509
N -0.2877 0.4898 0.1594
F -1.2491 -3.2824 1.0637
S -0.6203 0.5593 -0.9750
F -0.6762 -1.3161 -0.4445
F 0.0165 -1.8784 1.2160
C -0.8785 1.5051 2.9300
P -1.8454 -1.4298 -0.0904
C -0.2261 0.1267 1.2192
P -1.7437 -0.7456 -2.9196
C 2.2281 1.0316 0.5761
Cl 0.6137 1.1049 -0.3136
P -1.5656 0.2126 -0.5894
O 0.2959 2.1718 0.6338
C 2.1971 1.0009 -1.3054
20
step 12/50 Rg=2.241
S 0.1646 0.5744 -0.1132
S -0.6314 0.4942 1.2044
Cl 0.5296 0.6663 1.2259
P 2.3409 -0.7170 -0.5896
S 2.2412 -1.8326 -1.6223
P -1.7405 1.2868 -0.6677
N -0.1617 1.0661 -0.1493
F -1.3072 -3.2314 0.7924
S -0.2414 1.3347 -0.9410
F -0.5880 -1.2282 -0.7770
F -0.7969 -2.1946 0.7183
C -0.2282 1.3960 2.8507
P -1.4926 -1.8870 -0.4577
C -0.1038 0.4188 1.4628
Cl -1.5519 -1.0120 -2.0175
F 2.2114 0.5039 0.5851
Cl -0.1924 1.6504 -0.7356
P -0.5211 0.1657 -1.2901
O 0.1527 2.1925 1.4112
C 1.9170 0.3533 -0.8899
20
step 13/50 Rg=2.314
S 0.4153 0.3830 -0.0612
S -1.0476 0.4359 1.2983
Cl -0.1975 0.1128 0.7232
P 2.4638 -0.6852 -0.5622
P 2.5472 -1.6386 -1.3659
P -2.1571 1.4736 -0.5978
N -0.5187 0.3963 -0.5261
F -1.5107 -2.8019 0.1222
S -0.5819 1.2972 -0.8761
F -0.6489 -1.2261 -0.9632
F -0.2364 -2.5591 1.0440
C 0.0234 1.4419 3.5836
P -1.7336 -2.0065 -1.1738
C 0.2516 1.1179 1.8634
Cl -0.8270 -0.7434 -2.0273
F 1.6801 1.3995 0.5430
Cl -0.3619 1.6078 -0.5320
P -0.2785 0.0568 -1.2022
O 0.3561 1.5962 1.4151
C 2.3624 0.3420 -0.7051
20
step 14/50 Rg=2.233
S -0.0895 0.6158 -0.1223
S -1.6325 0.5222 1.5417
Cl -0.2087 0.2886 0.0528
C 1.8632 -0.6688 -0.6075
P 2.3240 -1.5242 -1.1629
O -1.9635 1.3544 -0.4671
Cl -0.8250 0.8760 -0.7703
F -0.6477 -2.8257 -0.4651
S -0.1326 1.3351 -0.6770
F -0.1218 -1.2288 -1.1079
F -0.0295 -2.6790 1.1158
C -0.8426 1.4894 3.2523
P -1.2564 -1.8509 -1.0408
C 0.4653 0.6746 2.4515
Cl -0.1980 -0.9508 -1.3398
Cl 1.4801 1.1085 0.6423
Cl -0.2786 2.0578 -0.8783
F -0.2546 -0.4931 -1.0701
O 0.4990 1.4846 1.8804
C 1.8494 0.4142 -1.2275
20
step 15/50 Rg=2.239
S 0.4063 0.3071 -0.2463
S -1.6049 0.8909 2.0421
Cl -0.3113 -0.2451 0.1816
P 2.0378 -1.2101 -0.5031
P 1.7714 -1.6146 -1.5080
C -1.6289 1.5016 -0.7964
N -0.5490 0.6630 -0.6811
F -0.9397 -2.7666 -0.2486
S -0.0102 1.8422 -0.4893
F -0.0127 -1.3258 -0.9721
F 0.0809 -2.5806 0.4010
C -0.7228 1.8083 3.1268
P -1.7133 -1.2040 -0.7669
C 0.3030 0.5264 2.3174
Cl 0.2165 -0.9021 -1.2560
Cl 1.4519 0.8294 1.2898
P 0.2800 2.0263 -0.9800
P -1.3017 -0.8453 -1.3462
O 0.5211 1.6282 1.4012
C 1.7256 0.6707 -0.9658
20
step 16/50 Rg=2.452
S 1.7401 1.2093 -0.4402
F -1.4155 1.1656 2.0059
Cl -0.9311 -0.4400 0.7829
C 1.8510 -1.2223 -0.7319
Cl 1.2588 -1.7993 -1.2117
C -1.9165 1.6696 -1.2731
N -0.8478 0.4591 -0.7056
C -1.1530 -2.2345 -0.4557
S 0.7319 1.9386 -0.4160
P -0.0077 -0.5836 -1.2870
F -0.3225 -2.9374 0.4139
C -1.2944 1.7351 3.8694
N -1.6551 -1.4724 -0.9310
C 0.5787 0.1859 3.0613
Cl 0.9827 -0.8186 -1.8052
Cl 1.6920 1.4688 1.1550
P 0.3905 1.4925 -0.9006
P -1.0094 -1.4662 -1.5181
O -0.0325 1.2002 1.7318
C 1.3601 0.4496 -1.3444
20
step 17/50 Rg=2.495
S 2.3794 1.2929 -0.5193
O -0.7891 1.1946 2.0097
Cl -0.2598 -0.3604 0.7853
C 1.5666 -1.8300 -0.5787
P 1.2291 -1.7426 -0.5015
O -2.0979 1.3796 -1.2012
Cl -0.9550 0.7484 -0.9142
C -0.7114 -1.6069 -0.3925
S 1.2599 1.5774 0.1074
P 0.4837 -0.5418 -1.3364
F -1.1958 -3.1118 0.2352
P -1.5124 1.7541 3.7512
P -1.7755 -1.8506 -1.0946
Cl 0.9495 0.1207 2.9249
Cl 0.6444 -0.5360 -1.6988
Cl 0.7871 1.5432 1.7062
P -0.2370 1.0652 -0.9592
P -1.2021 -1.4009 -2.0406
O -0.3539 1.7615 1.5259
F 1.7901 0.5432 -1.8087
20
step 18/50 Rg=2.410
S 2.4599 0.7469 -0.3677
O -0.5825 0.9635 2.1301
Cl 0.1002 -0.1225 0.3674
S 1.0560 -1.8043 -0.9226
Cl 0.9021 -1.5670 -0.1075
O -2.0833 1.1165 -0.8121
Cl -1.1556 0.3459 -0.8457
P -0.3620 -1.6484 -0.3217
S 1.5817 1.1369 -0.1506
P -0.2910 -0.3314 -1.1244
P -0.8440 -3.0631 0.0209
O -1.6481 1.8044 3.2841
P -1.1250 -1.7778 -0.9501
Cl 0.9370 0.4171 3.1005
C 0.4513 -0.3259 -1.5904
Cl 0.3032 1.9645 1.8567
C -0.2441 1.3951 -0.7814
P -1.2754 -1.1828 -2.0912
O -0.5001 1.8302 1.3796
F 2.3199 0.1023 -2.0739
20
step 19/50 Rg=2.524
Cl 2.3550 0.4588 -1.0359
O -0.7927 1.2773 2.1344
Cl 0.3183 0.6418 0.6318
S 0.6967 -1.7148 -1.0826
Cl 1.1922 -2.3185 0.0635
O -2.0967 1.0026 -1.1410
C -0.9688 0.1545 -1.1124
C -0.0067 -1.6033 -0.5204
S 0.9416 1.8425 0.2037
P 0.0042 -0.6638 -1.3454
S -1.0362 -2.8584 -0.0465
O -1.8421 1.4936 3.5789
P -0.5990 -1.5660 -0.8246
Cl 0.7903 -0.4637 3.1843
C 0.3919 -0.3557 -1.5882
Cl -0.1904 2.0451 2.0754
C -0.1206 1.3345 -0.6138
P -1.4195 -1.3732 -2.0273
S -0.4952 2.0186 1.5154
F 2.8777 0.6479 -2.0491
20
step 20/50 Rg=2.570
P 2.3110 0.2593 -1.4963
O -0.6042 1.1746 2.3651
Cl 0.7418 0.1227 0.5314
S 0.6041 -1.3585 -1.5529
Cl 1.6414 -2.3080 -0.0530
P -2.1895 0.8875 -0.8620
C -1.2420 0.2501 -1.1593
C -0.3148 -1.0088 -0.4556
S 1.0054 2.1635 -0.1874
P 0.5509 -1.5118 -1.4773
S -1.1496 -2.7148 -0.1187
P -1.8636 1.5599 3.3878
P -1.0569 -1.4093 -0.5716
Cl 1.1453 -0.5601 3.3864
C 0.3375 -0.0859 -1.2661
Cl -0.0858 1.9824 2.5058
Cl 0.0138 1.1200 -0.9474
Cl -1.5824 -0.9412 -1.7064
O -0.8535 1.6398 1.9357
F 2.5909 0.7386 -2.2581
20
step 21/50 Rg=2.593
P 2.2882 0.9163 -1.8531
O -0.4103 1.2595 2.5850
Cl 0.2815 0.6882 0.5660
S 0.5323 -1.2691 -1.4863
P 1.6873 -2.5968 -0.1335
P -2.2083 0.9824 -0.5922
C -1.1822 0.2749 -1.1302
C -0.2686 -0.6959 -1.0862
S 0.7934 1.6607 0.1488
P 0.6056 -1.5479 -1.1332
S -1.0553 -3.0348 -0.1736
P -1.8439 1.0995 3.2169
P -1.1484 -1.4124 -1.1164
C 1.2875 -0.3702 3.4498
C 0.4131 -0.2196 -1.0224
Cl -0.2800 1.6520 2.6010
N 0.3831 1.3407 -0.6594
Cl -1.7859 -1.3092 -1.2755
S -0.2980 2.0488 1.8525
C 2.2088 0.5330 -2.7579
20
step 22/50 Rg=2.717
N 2.3240 0.8085 -1.9534
O -0.3582 1.5660 2.3348
Cl 0.4268 0.2956 0.2262
C 0.5435 -1.1954 -1.1510
F 1.1353 -2.7867 -0.8242
P -2.3873 1.0756 -0.1899
C -1.3210 0.4955 -0.9954
P -0.4729 -1.2302 -1.0255
S 0.4494 2.2217 0.2210
P 0.8430 -1.6035 -1.1032
S -0.9925 -3.1679 -0.2820
P -1.7053 0.9510 3.0315
C -0.8729 -1.1955 -1.2246
Cl 1.6307 -0.3416 3.9980
S 0.4380 -0.5386 -0.4950
Cl -0.1487 1.7199 2.7525
N 0.3451 1.8196 -1.4813
Cl -2.1573 -1.0577 -1.3980
S -0.2343 1.7115 2.3778
F 2.5147 0.4523 -2.8185
20
step 23/50 Rg=2.831
P 2.5847 0.7617 -2.2708
F -0.2946 1.9454 2.0317
Cl 0.4014 0.6613 0.6490
Cl 1.0103 -1.2389 -0.9457
F 0.9311 -2.7156 -0.7028
P -2.3438 1.2407 -0.3845
C -1.3283 0.4808 -1.2926
P -0.4888 -1.7922 -0.7572
S 0.3823 2.0643 0.0835
P 0.9061 -1.6494 -1.1191
S -1.0357 -3.3140 -0.3028
P -1.8138 0.9518 2.9924
P -0.8479 -1.1098 -1.7241
F 1.1383 -0.4799 4.5495
C 0.9640 -0.1756 -0.6536
Cl -0.5901 1.0965 2.7511
N 0.3051 2.1394 -1.3051
P -2.0886 -1.3965 -1.5735
S -0.1221 1.9762 2.7137
F 2.3304 0.5538 -2.7392
20
step 24/50 Rg=2.914
N 2.0860 0.0345 -2.1404
F -0.7193 1.9945 1.9511
Cl 1.0796 0.9390 1.0603
Cl 0.8878 -1.0958 -1.3638
F 0.8548 -2.9014 -0.5039
P -1.6603 1.4580 -0.6836
C -1.5422 0.5188 -1.1568
N -0.7508 -1.8249 -1.0482
S -0.0218 2.2152 -0.0372
P 1.1614 -2.0904 -0.4641
S -1.3420 -3.3494 -0.2025
P -1.9261 1.0738 3.3109
P -0.5922 -0.9134 -1.7713
Cl 1.0188 0.1750 4.9108
C 0.7118 -0.1481 -0.8011
F -0.6299 0.7986 2.8269
N 0.6634 2.1795 -1.7660
C -1.8991 -1.1595 -1.6047
S -0.0785 1.6743 2.5892
O 2.6985 0.4217 -3.1056
20
step 25/50 Rg=2.986
P 2.2454 -0.3140 -2.5798
F -0.5630 2.4656 2.2339
Cl 1.2394 1.0236 0.6834
Cl 0.8915 -1.4229 -1.5769
Cl 0.9570 -2.9189 -0.3142
P -1.7790 1.0625 -0.7325
C -1.5223 0.9216 -1.2548
F -0.6079 -1.7238 -1.0190
S 0.1353 2.2206 -0.0805
P 0.9052 -2.0110 -0.2089
S -1.5998 -3.5153 -0.1709
F -1.9865 1.0191 3.3746
P -0.6741 -0.7105 -1.5284
S 1.3053 0.0114 4.9909
C 0.2698 0.0531 -1.1198
Cl -0.6406 0.8774 2.8937
C 0.4768 2.0938 -1.3851
C -1.8578 -1.2148 -1.6730
S 0.2857 1.7950 2.6660
F 2.5196 0.2875 -3.1988
20
step 26/50 Rg=2.947
F 1.5065 -0.3647 -2.1627
F -0.9336 2.5770 1.6874
Cl 1.7598 1.2357 0.4999
Cl 0.6865 -1.1160 -1.6180
Cl 0.9943 -2.9228 -0.4392
P -1.6951 0.6926 -0.6948
C -1.5169 0.9135 -1.3832
F -0.3059 -1.8559 -1.0639
S 0.4138 2.0876 -0.0395
P 0.8628 -1.7773 -0.4538
S -1.2897 -3.5202 -0.5100
F -1.5372 1.0135 3.4354
P -1.3357 -0.6462 -1.5353
F 0.9738 -0.0684 4.7564
C 0.2427 -0.2545 -0.9567
Cl -0.3343 1.0343 3.2101
N 0.6785 2.3349 -0.9556
C -2.0041 -1.3956 -1.4635
S 0.3805 1.8308 3.0412
F 2.4532 0.2018 -3.3542
20
step 27/50 Rg=2.835
P 1.4210 -0.4846 -1.9175
F -0.8602 2.5392 1.4625
Cl 1.9314 0.9343 0.3515
Cl 0.7446 -1.8096 -1.9395
S 0.7979 -2.4229 -1.0452
P -1.6623 0.6772 -0.9188
C -1.6200 0.7325 -1.5813
F -0.2840 -1.4417 -1.0964
S 0.5912 2.0226 0.1453
C 0.3397 -1.7805 -0.3028
S -1.3101 -3.1077 -0.2194
N -1.4410 0.9735 3.2150
C -1.2095 -0.8109 -1.5184
F 0.6278 0.2398 4.7833
C 0.0507 0.0931 -1.0129
Cl -0.0726 0.9592 3.4314
N 0.9374 2.2086 -0.5626
C -1.8993 -1.0883 -1.4951
S 0.5616 1.5140 3.0369
Cl 2.3557 0.0522 -2.8161
20
step 28/50 Rg=2.847
P 1.1024 -0.7728 -1.9509
F -0.6221 2.6422 1.3203
Cl 1.6825 1.3338 0.4719
Cl 0.6799 -1.8161 -1.7160
S 0.6855 -2.3171 -1.1008
P -1.6329 0.6736 -0.8472
C -1.8602 0.4840 -1.3935
P -0.4123 -1.4494 -1.1030
F 0.8845 1.8158 0.3792
P 0.4860 -1.5241 -0.4319
S -0.9240 -3.0026 -0.5233
P -1.4013 0.9414 3.4972
C -1.2449 -0.8514 -1.6210
F 0.7553 0.0229 4.6539
C 0.0171 0.3594 -1.1579
Cl -0.0017 1.2436 3.7760
N 0.8166 1.9535 -0.9204
F -2.0523 -0.8913 -1.7159
S 0.6351 1.3537 3.1772
Cl 2.4066 -0.1991 -2.7938
20
step 29/50 Rg=2.893
P 1.1029 -0.8255 -1.9759
F -0.5588 2.5016 1.2713
Cl 1.4769 1.3697 0.3640
Cl 1.0478 -1.6633 -2.0505
F 0.8386 -2.3229 -1.1604
P -1.8782 0.7245 -0.8413
C -2.1001 0.1998 -1.4326
F -0.3201 -1.3234 -1.1014
F 0.7201 1.8089 0.6157
P 0.4642 -1.8335 -0.6485
S -1.0894 -3.1296 -0.4472
P -1.6430 1.1796 3.3947
C -0.9138 -0.9083 -1.8890
S 0.5610 0.1921 4.6708
C -0.0092 0.4242 -1.1949
Cl 0.0288 1.4814 3.9733
S 0.4409 2.0263 -1.1069
F -1.8002 -1.0742 -1.0643
S 1.0102 1.2621 3.2029
Cl 2.6211 -0.0895 -2.5799
20
step 30/50 Rg=2.961
P 0.8796 -0.8362 -2.1272
F -0.4238 2.7312 0.9933
Cl 1.2476 1.1526 0.2661
Cl 1.1244 -1.6544 -2.1810
S 1.0600 -2.7512 -0.9746
P -1.9997 0.7454 -0.9357
C -1.9102 0.0161 -1.4434
F -0.3544 -1.6659 -1.3589
F 0.7247 1.5595 0.5640
P 0.3319 -1.8029 -0.7599
S -0.8795 -3.1485 -0.7704
P -1.2051 1.0841 3.2398
C -1.2681 -0.7512 -1.8762
F 0.4810 0.2201 4.9492
C -0.2314 0.9516 -1.2494
Cl 0.3278 1.6242 4.0811
N 0.3025 2.0911 -1.0317
F -1.9443 -0.9839 -0.7458
S 1.3151 1.4496 3.6847
Cl 2.4220 -0.0312 -2.3238
20
step 31/50 Rg=3.007
Cl 0.7317 -0.8040 -2.3824
F -0.4388 2.9244 1.1924
Cl 0.9467 1.0671 0.1971
N 1.1699 -1.6967 -1.9840
Cl 1.1425 -2.7300 -1.2146
P -1.7519 0.1976 -0.9152
C -1.8450 -0.0038 -1.2335
N -0.4107 -1.5951 -1.3104
F 1.2545 2.0361 0.3263
P 0.1062 -1.8163 -0.9764
S -0.7241 -3.1365 -1.0273
P -1.1061 1.0595 3.2851
C -1.4879 -0.8432 -1.7229
F 0.4977 0.2392 5.0644
S -0.1179 0.7773 -1.1758
Cl 0.6205 1.7794 4.1658
N 0.3052 2.0938 -0.9232
Cl -2.2898 -1.2108 -0.6642
S 0.9964 1.6571 3.6352
Cl 2.4009 0.0048 -2.3366
20
step 32/50 Rg=2.992
P 1.1045 -0.5572 -2.5611
F -0.4302 3.0214 1.5096
P 1.0214 1.2877 0.2724
N 1.3456 -1.8193 -1.9650
Cl 1.3836 -2.8418 -1.2550
P -1.7904 -0.0698 -0.9040
C -1.6927 -0.0466 -1.3914
N -0.5294 -1.5262 -0.9696
F 1.3025 1.8771 0.6937
P -0.0732 -1.9906 -1.1612
P -0.6686 -3.0682 -0.9786
N -1.0499 1.1169 3.4117
C -1.3262 -1.0116 -1.7207
N 0.3532 0.3396 5.1037
S -0.1629 0.6678 -1.3312
Cl 0.0870 1.6748 4.0705
N 0.1633 2.2732 -0.9120
C -2.1430 -0.9746 -1.0271
S 0.9795 1.5391 3.1100
Cl 2.1260 0.1083 -1.9946
20
step 33/50 Rg=3.069
P 1.2134 -0.7394 -2.2505
S -0.5302 2.8857 1.4313
Cl 0.8773 1.3371 0.2074
N 1.3993 -1.9799 -2.0708
Cl 1.4056 -2.9569 -1.1480
P -1.8520 0.0433 -0.8907
C -1.5152 0.0983 -1.5737
N -0.5727 -1.2805 -1.0686
F 0.7945 1.8456 0.7476
P -0.4777 -1.9506 -1.3056
P -0.5572 -3.2515 -1.2270
N -1.1542 1.0710 3.8347
C -1.3705 -1.1512 -1.9129
S 0.6322 0.6414 5.4710
S -0.0785 0.7202 -1.5534
Cl 0.1061 1.5561 3.9147
S 0.4443 2.1811 -0.6454
P -2.0006 -0.9700 -0.9694
O 0.9144 1.8581 3.1520
Cl 2.3216 0.0423 -2.1426
20
step 34/50 Rg=3.152
P 1.2974 -0.5297 -2.1306
F -0.3618 2.8978 1.4762
Cl 0.9004 1.0189 0.2126
N 1.0486 -1.7684 -2.0820
Cl 1.3900 -3.1940 -1.0678
Cl -1.9075 0.1615 -1.0239
C -1.6518 0.1216 -1.7216
N -0.5387 -1.6031 -1.2096
F 1.0641 2.1366 0.8866
P -0.2001 -2.4359 -1.4734
P -0.6149 -3.1649 -1.0892
N -1.3585 1.3473 3.8296
C -1.2078 -1.2531 -1.8494
N 0.4733 0.8201 5.4602
C -0.0239 0.8920 -1.5102
Cl 0.2656 1.7342 4.0232
S 0.3533 2.1749 -0.5940
C -2.1488 -1.0020 -1.2647
N 0.9706 1.9897 3.3805
Cl 2.2504 -0.3436 -2.2525
20
step 35/50 Rg=3.244
P 1.2716 -0.8766 -2.2698
F -0.4668 2.8115 1.4401
Cl 1.0880 1.1911 0.1844
N 0.8818 -1.8523 -2.4813
Cl 1.3196 -2.9915 -1.2233
F -2.2256 0.2339 -1.1821
C -1.4241 0.2993 -1.6214
N -0.4351 -1.7857 -1.2149
F 1.1596 2.2069 0.8350
P -0.0791 -2.0931 -1.5163
O -0.4685 -3.3179 -1.0036
P -1.2551 1.3485 4.0281
C -1.3861 -1.4121 -1.8184
N 0.5954 0.9027 5.6395
C -0.1179 0.7787 -1.5985
Cl 0.1837 1.7279 4.0394
S 0.3129 2.2616 -0.6619
C -2.3238 -1.1056 -1.4069
N 1.0465 2.0804 3.7823
Cl 2.3227 -0.4075 -1.9504
20
step 36/50 Rg=3.294
P 1.4471 -1.0312 -2.2762
S -0.2982 2.8089 2.0464
Cl 1.0899 1.4587 -0.0713
N 1.0678 -1.6989 -2.4791
Cl 0.9556 -3.0737 -1.2891
Cl -1.9997 0.5384 -1.2734
C -1.5854 0.1568 -1.6141
N -0.3698 -1.9186 -1.0955
F 1.1026 2.3646 0.8631
P -0.2114 -2.5399 -1.4290
O -0.5031 -3.3629 -0.9134
N -1.1268 1.4202 4.1206
C -1.6083 -1.4988 -1.6886
F 0.4969 1.0621 5.5993
S -0.1478 0.7972 -1.5211
Cl 0.2968 1.7972 3.6633
S 0.4957 2.5491 -0.7356
C -2.3461 -1.2994 -1.7134
N 0.9584 2.0405 3.7690
Cl 2.2857 -0.5702 -1.9619
20
step 37/50 Rg=3.364
P 1.3939 -0.8824 -2.0145
F -0.6306 2.9083 2.0919
S 1.2600 1.4407 -0.3414
N 1.3648 -1.9151 -2.4830
Cl 0.7833 -3.1479 -1.2607
Cl -2.0261 0.5931 -1.3564
C -1.6259 0.0356 -1.5784
N -0.5917 -1.9362 -0.9993
F 1.0319 2.4438 0.9062
P -0.2121 -2.8827 -1.7034
C -0.5790 -3.2565 -1.0098
P -0.9371 1.4859 4.1593
C -1.6829 -1.2039 -1.8711
N 0.5337 0.9707 5.7099
S -0.0044 0.7998 -1.4248
Cl 0.5722 1.7600 3.8602
S 0.3145 2.5464 -0.7811
C -2.3420 -1.1573 -1.6901
N 1.1364 2.1872 3.8937
Cl 2.2411 -0.7895 -2.1071
20
step 38/50 Rg=3.414
P 1.2655 -0.7812 -2.0797
F -0.6734 2.9441 2.2621
S 1.2798 1.4067 -0.2864
N 1.2921 -2.0155 -2.6636
Cl 0.8486 -3.2645 -1.2111
P -2.0569 0.6953 -1.2956
C -1.6800 0.3511 -1.5834
N -0.2247 -1.8932 -1.0908
F 0.9652 2.3314 0.8642
P -0.3192 -2.9151 -1.7039
P -0.6054 -3.2287 -1.0073
P -0.6477 1.3307 4.1700
C -1.7235 -1.0461 -2.1221
N 0.3275 0.9478 5.9222
S 0.0257 0.6692 -1.5320
Cl 0.7222 1.6389 3.7396
S 0.4836 2.6528 -0.5745
P -2.5699 -1.4392 -1.6448
N 1.1551 2.2341 4.0627
Cl 2.1353 -0.6186 -2.2255
20
step 39/50 Rg=3.447
C 1.2103 -0.7983 -2.1761
F -0.5761 3.0161 2.2796
N 1.1284 1.3786 -0.4293
N 1.3662 -1.8148 -2.5898
Cl 0.9167 -3.0575 -1.1294
Cl -2.0988 0.9840 -1.2924
C -1.9917 0.4993 -1.8596
N -0.2349 -2.1090 -1.2506
F 0.9016 2.2535 0.8516
P -0.1969 -2.9954 -1.5538
C -0.7720 -3.2737 -0.9260
C -0.7628 1.1465 4.2293
C -1.5473 -1.0518 -2.0910
N 0.3285 0.9422 5.9064
S -0.2849 0.5525 -1.6914
Cl 0.6967 1.7163 3.7919
S 0.5420 2.4986 -0.3652
P -2.3998 -1.5847 -1.5494
N 1.1153 2.2462 4.1764
Cl 2.6595 -0.5483 -2.3311
20
step 40/50 Rg=3.491
P 1.5161 -1.0587 -2.0096
F -0.5460 2.7523 2.1705
S 1.1484 1.5183 -0.3216
O 1.5963 -1.8786 -2.3616
Cl 1.0301 -3.0996 -1.2102
P -2.2615 1.0200 -1.4559
C -2.1204 0.5861 -1.7832
N -0.2786 -1.8341 -1.3675
F 0.8329 2.3583 0.8641
C -0.1287 -3.2505 -1.5270
F -1.0615 -3.4629 -1.1305
C -0.8497 1.1092 4.1962
C -1.4900 -1.0184 -2.2729
F 0.3006 0.9624 5.7901
S -0.1782 0.6391 -1.6463
Cl 0.4549 1.7554 3.9705
Cl 0.7219 2.6412 -0.3252
P -2.2233 -1.3597 -1.5715
N 1.0325 2.2088 4.4712
Cl 2.5040 -0.5888 -2.4796
20
step 41/50 Rg=3.500
P 1.5190 -1.3319 -2.1512
N -0.5163 2.8173 2.2229
N 1.0874 1.6192 -0.3055
O 1.6827 -2.0024 -2.2745
Cl 1.1150 -3.2245 -1.1772
Cl -2.2199 1.1174 -1.4664
C -1.8514 0.5364 -1.7489
N -0.2634 -1.8217 -1.2374
F 0.6981 2.5634 0.8662
P -0.1593 -3.0800 -1.6710
C -1.1078 -3.5843 -1.1418
P -0.8418 1.3050 4.3951
C -1.6591 -0.9253 -2.0758
N 0.3849 0.8585 5.6944
S -0.1897 0.6939 -1.7561
Cl 0.4516 1.6176 3.8927
Cl 0.6239 2.7083 -0.3946
P -2.1879 -1.2549 -1.4024
N 0.8234 2.1149 4.3288
Cl 2.6105 -0.7271 -2.5972
20
step 42/50 Rg=3.501
C 1.5244 -1.2940 -1.9370
N -0.4908 2.7075 2.1504
N 0.8105 1.6976 -0.6345
N 1.7481 -2.0623 -2.0035
F 0.9236 -3.3350 -1.2242
F -2.3157 1.0984 -1.5042
C -1.8993 0.5733 -1.9856
N -0.2758 -1.8532 -1.2099
Cl 0.9065 2.5679 1.0577
P -0.1980 -3.1396 -1.4314
F -1.0959 -3.5817 -1.0500
P -0.7816 1.3060 4.3030
C -1.6494 -0.8409 -1.9840
N 0.4300 0.8960 5.6392
C -0.3173 0.7749 -1.8295
Cl 0.4170 1.5825 3.7777
S 0.6905 2.7293 -0.4507
P -2.2579 -1.1335 -1.3793
N 0.9464 2.0663 4.4013
Cl 2.8846 -0.7594 -2.7054
20
step 43/50 Rg=3.512
P 1.3487 -1.1464 -2.0757
N -0.4006 2.5614 2.2871
N 0.9394 1.5329 -0.7549
N 1.8597 -2.0355 -1.8978
F 0.8695 -3.1635 -1.2445
F -2.5015 1.1220 -1.6320
Cl -1.6638 0.5187 -1.8703
N -0.3315 -1.8552 -1.4647
C 0.9666 2.7688 0.9952
P -0.3611 -3.0218 -1.5663
F -1.0549 -3.7077 -1.1526
F -0.7434 1.2069 4.2715
C -1.6073 -1.0631 -1.7396
O 0.3818 0.8064 5.6277
C -0.2099 0.9340 -1.7406
Cl 0.2921 1.6842 3.8144
S 0.7074 2.8763 -0.4885
C -2.3525 -1.2448 -1.3805
N 1.0622 1.9834 4.5949
P 2.7989 -0.7572 -2.5828
20
step 44/50 Rg=3.547
P 1.2986 -1.2493 -2.1424
N -0.1702 2.6097 2.3398
O 0.8503 1.5246 -0.9020
N 1.8651 -2.0608 -1.9917
F 0.8566 -3.1142 -1.2915
F -2.4024 0.9661 -1.6927
Cl -1.7800 0.3963 -1.9044
N -0.3288 -1.8206 -1.5738
C 0.7656 2.8915 1.0267
P -0.4431 -3.0358 -1.4962
C -1.1646 -3.7547 -1.2258
F -0.6884 1.1024 4.3405
C -1.5593 -0.9385 -1.5810
O 0.4166 0.7589 5.5112
S -0.1241 1.0948 -1.8405
Cl 0.2952 1.7042 4.0069
S 0.6196 3.0400 -0.3872
P -2.3023 -1.3686 -1.3512
N 0.9640 2.0343 4.6654
P 3.0315 -0.7803 -2.5102
20
step 45/50 Rg=3.578
P 1.1055 -1.2899 -2.0816
N -0.1193 2.7838 2.3880
Cl 0.6983 1.4359 -0.7297
N 1.8657 -2.0449 -2.0675
F 1.0291 -3.1504 -1.4006
F -2.5531 1.0363 -1.6992
Cl -1.6227 0.4303 -1.9087
Cl -0.3618 -1.8032 -1.6533
C 0.7758 2.8639 0.9447
P -0.3174 -3.0622 -1.5472
C -1.2250 -3.7739 -1.1898
F -0.6548 1.1353 4.5149
C -1.5095 -1.0251 -1.6029
C 0.3200 0.8836 5.6610
S -0.0991 1.1481 -1.8779
Cl 0.2881 1.5871 3.8987
Cl 0.5043 2.9873 -0.3922
P -2.2118 -1.3573 -1.3374
N 0.9576 2.1040 4.6471
P 3.1302 -0.8887 -2.5663
20
step 46/50 Rg=3.601
P 1.1939 -1.2212 -2.0443
N -0.1523 2.6962 2.4701
Cl 0.7906 1.3894 -0.7457
P 1.8919 -2.0532 -1.9760
F 1.0243 -3.2411 -1.4192
Cl -2.5829 1.1534 -1.7055
N -1.4554 0.3482 -1.8902
N -0.3037 -1.9393 -1.7481
C 0.7918 3.0123 0.9318
C -0.2935 -2.9951 -1.6190
C -1.3569 -3.8348 -1.2627
F -0.7473 1.1581 4.5936
C -1.4172 -0.9093 -1.5156
C 0.2235 0.9456 5.6015
S -0.1703 1.2014 -2.0365
Cl 0.1912 1.6291 3.8270
Cl 0.4972 2.8692 -0.3208
P -2.2515 -1.3767 -1.4013
N 0.9792 2.1191 4.7875
S 3.1475 -0.9515 -2.5265
20
step 47/50 Rg=3.610
P 1.1294 -1.2854 -2.0055
S -0.1343 2.6242 2.3741
Cl 0.7461 1.4128 -0.7369
O 1.9497 -1.9678 -1.9805
C 1.0309 -3.3616 -1.3850
Cl -2.6042 1.2208 -1.6962
N -1.5360 0.3596 -1.9111
C -0.3304 -1.8488 -1.6710
N 0.8997 3.0312 0.9648
C -0.2813 -2.9899 -1.5347
O -1.2939 -3.7918 -1.3682
F -0.7722 1.2263 4.5571
C -1.3526 -0.9051 -1.5412
C 0.1853 0.9146 5.6248
S -0.1164 1.2151 -2.1320
F 0.2231 1.6823 3.8408
Cl 0.4542 2.7679 -0.2733
P -2.3627 -1.3438 -1.3453
N 0.9418 2.0849 4.8523
O 3.2234 -1.0455 -2.6329
20
step 48/50 Rg=3.609
P 1.0733 -1.2299 -1.9470
S -0.2184 2.6567 2.3337
P 0.7078 1.4140 -0.7930
O 2.0336 -1.9753 -1.9663
C 1.0484 -3.4369 -1.3592
C -2.6605 1.2208 -1.7720
N -1.4741 0.4082 -1.8309
C -0.2635 -1.8117 -1.6672
C 0.9378 3.0324 0.9642
C -0.2951 -2.9750 -1.4449
O -1.3198 -3.7700 -1.4412
O -0.7579 1.1671 4.5449
C -1.4004 -0.8313 -1.6109
C 0.2607 0.9227 5.6254
C -0.1555 1.1445 -2.0822
C 0.2363 1.6917 3.7255
C 0.4113 2.8139 -0.2211
F -2.4445 -1.4153 -1.2925
C 0.9313 2.0608 4.8239
S 3.3491 -1.0876 -2.5893
20
step 49/50 Rg=3.590
C 1.0374 -1.1162 -1.9049
S -0.2298 2.6536 2.2930
C 0.6620 1.4010 -0.7703
C 2.0879 -1.9468 -2.0209
C 1.0525 -3.5122 -1.3239
C -2.6411 1.2314 -1.7591
N -1.4311 0.4498 -1.8655
C -0.2569 -1.7375 -1.6183
C 0.9299 3.0547 1.0172
C -0.2560 -3.0024 -1.4003
O -1.2965 -3.7917 -1.3894
C -0.7500 1.1135 4.5451
C -1.4404 -0.8782 -1.5586
C 0.2392 0.9292 5.5383
C -0.1173 1.1921 -2.0804
C 0.2569 1.6491 3.6757
C 0.3878 2.8126 -0.2831
O -2.4677 -1.4978 -1.3104
C 0.9369 2.0459 4.7576
C 3.2963 -1.0502 -2.5418
20
step 50/50 Rg=3.598
C 1.0168 -1.0941 -1.9033
S -0.2459 2.6684 2.2980
C 0.6352 1.3979 -0.7855
C 2.1367 -1.9324 -2.0247
C 1.0848 -3.5648 -1.3173
C -2.6477 1.2428 -1.7833
N -1.4093 0.4977 -1.8278
C -0.2440 -1.7060 -1.6157
C 0.9231 3.0679 1.0403
C -0.2243 -3.0308 -1.4195
O -1.3439 -3.7992 -1.3631
C -0.7922 1.0960 4.5330
C -1.4428 -0.8914 -1.5748
C 0.2707 0.9326 5.5655
C -0.1441 1.1815 -2.0810
C 0.2648 1.6299 3.6185
C 0.3950 2.8024 -0.3089
O -2.5059 -1.4861 -1.3132
C 0.9702 2.0493 4.7930
C 3.3029 -1.0617 -2.5303
